Cost: 1349
0-3-4-5-70-44-43-42-41-37-38-36-40-68-46-62-54-51-50-52-53-56-0
0-59-8-7-9-25-27-13-16-18-19-20-21-22-34-35-32-26-17-28-29-30-31-65-1-0
Cost: 1349
0-3-4-5-70-65-44-43-42-41-38-35-34-36-37-40-68-46-54-51-50-52-53-0
0-57-59-8-7-9-25-27-13-16-18-19-20-21-22-32-26-17-64-28-29-30-31-1-0
Cost: 1349
0-3-4-5-70-44-43-42-41-37-38-36-40-68-46-62-54-51-50-52-53-56-0
0-59-8-7-9-25-27-13-16-18-19-20-21-22-34-35-32-26-17-28-29-30-31-65-1-0
Cost: 1349
0-57-59-8-7-9-25-27-13-16-18-19-20-21-22-34-35-32-26-17-64-28-29-30-31-1-0
0-3-4-5-70-44-43-42-41-38-36-37-40-68-46-62-54-51-50-52-53-0
Cost: 1349
0-57-59-8-7-9-13-17-25-27-16-18-19-20-21-34-35-32-26-22-64-28-29-30-31-1-0
0-3-4-5-70-44-43-42-41-37-38-36-40-68-46-62-54-51-50-52-53-0
Cost: 1349
0-3-59-8-7-9-13-16-18-19-20-21-22-34-35-32-26-17-25-27-28-29-30-31-1-0
0-4-5-70-65-44-43-42-41-38-36-37-63-40-68-46-54-51-50-52-53-56-0
Cost: 1349
0-4-5-70-65-44-43-42-41-37-38-36-40-68-46-54-51-50-52-53-56-0
0-3-59-8-7-9-13-16-18-19-20-21-34-35-32-26-22-64-25-27-17-28-29-30-31-1-0
Cost: 1349
0-4-5-70-65-44-43-42-41-37-38-36-40-68-46-54-51-50-52-53-56-0
0-3-59-8-7-9-13-16-18-19-20-21-34-35-32-26-22-64-25-27-17-28-29-30-31-1-0
Cost: 1349
0-4-5-70-65-44-43-42-41-37-38-36-40-68-46-54-51-50-52-53-56-0
0-3-59-8-7-9-13-16-18-19-20-21-34-35-32-26-22-64-25-27-17-28-29-30-31-1-0
Cost: 1349
0-4-5-70-65-44-43-42-41-37-38-36-40-68-46-54-51-50-52-53-56-0
0-3-59-8-7-9-13-16-18-19-20-21-34-35-32-26-22-64-25-27-17-28-29-30-31-1-0
Cost: 1349
0-59-8-7-9-13-25-27-16-18-19-20-21-22-34-35-32-26-17-64-28-29-30-31-1-0
0-3-4-5-70-44-43-42-41-37-38-36-40-68-46-62-54-51-50-52-53-56-0
Cost: 1349
0-59-8-7-9-13-25-27-16-18-19-20-21-22-34-35-32-26-17-64-28-29-30-31-1-0
0-3-4-5-70-44-43-42-41-37-38-36-40-68-46-62-54-51-50-52-53-56-0
Cost: 1349
0-59-8-7-9-13-25-27-16-18-19-20-21-22-34-35-32-26-17-64-28-29-30-31-1-0
0-3-4-5-70-44-43-42-41-37-38-36-40-68-46-62-54-51-50-52-53-56-0
Cost: 1349
0-3-59-8-7-9-13-16-18-19-20-21-34-35-32-26-22-25-27-17-28-29-30-31-65-1-0
0-4-5-70-44-43-42-41-38-36-37-40-68-46-62-54-51-50-52-53-56-0
Cost: 1349
0-59-8-7-9-13-25-27-16-18-19-20-21-22-34-35-32-26-17-64-28-29-30-31-1-0
0-3-4-5-70-44-43-42-41-37-38-36-40-68-46-62-54-51-50-52-53-56-0
Cost: 1349
0-59-8-7-9-13-25-27-16-18-19-20-21-22-34-35-32-26-17-64-28-29-30-31-1-0
0-3-4-5-70-44-43-42-41-37-38-36-40-68-46-62-54-51-50-52-53-56-0
Cost: 1349
0-59-8-7-9-13-25-27-16-18-19-20-21-22-34-35-32-26-17-64-28-29-30-31-1-0
0-3-4-5-70-44-43-42-41-37-38-36-40-68-46-62-54-51-50-52-53-56-0
Cost: 1349
0-59-8-7-9-13-25-27-16-18-19-20-21-22-34-35-32-26-17-64-28-29-30-31-1-0
0-3-4-5-70-44-43-42-41-37-38-36-40-68-46-62-54-51-50-52-53-56-0
Cost: 1349
0-59-8-7-9-13-25-27-16-18-19-20-21-22-34-35-32-26-17-64-28-29-30-31-1-0
0-3-4-5-70-44-43-42-41-37-38-36-40-68-46-62-54-51-50-52-53-56-0
Cost: 1349
0-57-59-8-7-9-25-27-13-16-18-19-20-21-32-26-22-17-28-29-30-31-65-1-0
0-3-4-5-70-44-43-42-41-37-38-35-34-36-40-68-46-62-54-51-50-52-53-0
Cost: 1349
0-3-4-5-70-44-43-42-41-38-35-34-36-37-63-40-68-46-62-54-51-50-52-53-0
0-57-59-8-7-9-25-27-13-16-18-19-20-21-22-32-26-17-28-29-30-31-2-0
Cost: 1349
0-3-4-5-70-44-43-42-41-38-35-34-36-37-63-40-68-46-62-54-51-50-52-53-0
0-57-59-8-7-9-25-27-13-16-18-19-20-21-22-32-26-17-28-29-30-31-2-0
Cost: 1349
0-3-4-5-70-44-43-42-41-38-36-37-63-40-68-46-54-51-50-52-53-0
0-57-59-8-7-9-13-16-18-19-20-21-34-35-32-26-22-25-27-17-28-29-30-31-65-1-0
Cost: 1349
0-3-4-5-70-44-43-42-41-38-36-37-63-40-68-46-54-51-50-52-53-0
0-57-59-8-7-9-13-16-18-19-20-21-34-35-32-26-22-25-27-17-28-29-30-31-65-1-0
Cost: 1349
0-57-59-8-7-9-17-25-27-14-16-18-19-20-21-34-35-32-26-22-28-29-30-31-1-0
0-3-4-5-70-65-44-43-42-41-38-36-37-40-68-46-62-54-51-50-52-53-0
Cost: 1349
0-3-4-5-70-44-43-42-41-38-36-37-63-40-68-46-54-51-50-52-53-0
0-57-59-8-7-9-13-16-18-19-20-21-34-35-32-26-22-25-27-17-28-29-30-31-65-1-0
Cost: 1349
0-57-59-8-7-9-25-27-13-16-18-19-20-21-32-26-22-17-28-29-30-31-65-1-0
0-3-4-5-70-44-43-42-41-37-38-35-34-36-40-68-46-62-54-51-50-52-53-0
Cost: 1349
0-3-4-5-70-44-43-42-41-38-35-34-36-37-63-40-68-46-62-54-51-50-52-53-0
0-57-59-8-7-9-25-27-13-16-18-19-20-21-22-32-26-17-28-29-30-31-2-0
Cost: 1349
0-3-4-5-70-44-43-42-41-38-35-34-36-37-63-40-68-46-62-54-51-50-52-53-0
0-57-59-8-7-9-25-27-13-16-18-19-20-21-22-32-26-17-28-29-30-31-2-0
Cost: 1349
0-59-8-7-9-64-25-27-13-16-18-19-20-21-22-32-26-17-28-29-30-31-1-0
0-3-4-5-70-44-43-42-41-37-38-35-34-36-40-68-46-62-54-51-50-52-53-56-0
Cost: 1349
0-57-59-8-7-9-14-16-18-19-20-21-22-32-26-25-27-17-64-28-29-30-31-1-0
0-3-4-5-70-44-43-42-41-37-38-35-34-36-40-68-46-62-54-51-50-52-53-0
Cost: 1349
0-4-5-70-44-43-42-41-38-36-37-40-68-46-62-54-51-50-52-53-56-0
0-3-59-8-7-9-16-18-19-20-21-34-35-32-26-22-25-27-13-17-28-29-30-31-65-2-0
Cost: 1349
0-4-5-70-65-44-43-42-41-38-35-34-36-37-40-68-46-62-54-51-50-52-53-56-0
0-3-59-8-7-9-17-25-27-13-16-18-19-20-21-32-26-22-28-29-30-31-2-0
Cost: 1349
0-4-5-70-44-43-42-41-37-38-35-34-36-40-68-46-62-54-51-50-52-53-56-0
0-3-59-8-7-9-13-17-25-27-16-18-19-20-21-32-26-22-28-29-30-31-65-1-0
